mapa = [|
         9,9,9,9,9,9,9|
         9,9,9,9,8,8,9|
         9,0,0,1,8,8,9|
         9,0,0,1,8,8,9|
         9,0,0,1,8,8,9|
         9,9,9,9,8,8,9|
         9,9,9,9,9,9,9|];
dimx = 7;
dimy = 7;
filav = 4;
colav = 6;
